\ Model SatelliteLP_copy
\ LP format - for model browsing. Use MPS format to capture full model detail.
Minimize
 
Subject To
 R263: p_Sat1_0[1] = 0
 R443: p_Sat2_0[1] = 1.732051
 R802: - p_Sat1_0[1] + p_Sat2_0[1] + dy_Sat1_Sat2_0 = 0
Bounds
 p_Sat1_0[1] free
 p_Sat2_0[1] free
End
